rehearsal = [[0,0,1,1,1,1,1,1,1,0], [1,1,0,1,0,0,0,1,1,0], [1,1,0,1,1,1,1,0,1,0], [0,0,0,1,1,1,0,0,1,0], [1,1,1,0,0,1,0,1,0,0], [1,1,1,1,0,0,1,1,0,1], [1,1,0,0,0,1,0,0,1,0], [1,1,0,0,1,0,1,1,1,1], [1,0,0,0,0,1,1,1,0,1], [1,0,0,1,1,1,0,0,0,1], [1,1,1,0,0,0,1,1,1,1], [1,0,0,1,0,0,0,1,0,1], [1,0,0,1,0,0,1,1,1,0], [0,1,1,0,0,1,1,1,0,1], [0,1,0,0,0,0,0,1,0,1], [0,0,1,1,1,1,1,1,0,0], [0,0,1,1,0,0,1,0,0,0], [1,1,0,0,0,0,0,0,1,1], [0,0,1,1,1,0,1,0,0,1], [0,0,1,0,1,1,1,1,1,1], [0,0,0,0,0,0,0,0,1,1], [0,1,1,1,1,1,0,0,0,1], [1,0,1,1,1,0,1,0,1,1], [0,0,1,1,1,1,1,0,0,1], [1,1,1,1,0,0,1,0,0,1]];
permutations = [5,4,7,3,8,6,10,1,2,9];